fcc Ni
   3.4 
 0.5 0.5 0.0
 0.0 0.5 0.5
 0.5 0.0 0.5
Ni
   1
cartesian
0 0 0
