cubic diamond Si                        
   5.50000000000000     
     0.0000000000000000    0.5000000000000000    0.5000000000000000
     0.5000000000000000    0.0000000000000000    0.5000000000000000
     0.5000000000000000    0.5000000000000000    0.0000000000000000
   Si
     2
Direct
  0.8750076323175533  0.8750076323175533  0.8774944853797301
  0.1249923676824468  0.1249923676824468  0.1275055146202724
 
  0.00000000E+00  0.00000000E+00  0.00000000E+00
  0.00000000E+00  0.00000000E+00  0.00000000E+00
