System = diamond Si

ISTART = 0  
ICHARG=2
ENCUT  =    240
ISMEAR = 0
SIGMA = 0.1
NSW    =  10
IBRION =  2
ISIF   =  2
EDIFFG = -0.0001
