SYSTEM = fcc Ni

ISTART = 0
ICHARG=2
ENCUT  =    270
ISMEAR = -5
#SIGMA = 0.2
LORBIT = 11
ISPIN = 2
MAGMOM = 1
