fcc Ni
 -10.93    
 0.5 0.5 0.0
 0.0 0.5 0.5
 0.5 0.0 0.5
Ni
   1  
Cartesian
0 0 0
