System: Si                             
 5.430 
 0.5 0.5 0.0
 0.0 0.5 0.5
 0.5 0.0 0.5
Si
   1  
Cartesian
0    0    0
0.25 0.25 0.25
