System = diamond Si

ISTART = 0
#ICHARG=2
ICHARG = 10
ENCUT  =    240
ISMEAR = 0
SIGMA = 0.1
LORBIT = 11
