System = fcc Si

ICHARG = 11  #read charge file
ENCUT = 240
ISMEAR = 0
SIGMA = 0.1
LORBIT = 11
