fcc:
   4.1
 0.5 0.5 0.0
 0.0 0.5 0.5
 0.5 0.0 0.5
Si
   1
cartesian
0 0 0
